CPXPARAM_Read_DataCheck                          1
Found incumbent of value 0.000000 after 0.00 sec. (0.26 ticks)
Tried aggregator 1 time.
MIP Presolve modified 1 coefficients.
Reduced MIP has 2016 rows, 10005 columns, and 50015 nonzeros.
Reduced MIP has 10005 binaries, 0 generals, 0 SOSs, and 0 indicators.
Presolve time = 0.05 sec. (21.77 ticks)
Probing time = 0.00 sec. (3.32 ticks)
Tried aggregator 1 time.
Reduced MIP has 2016 rows, 10005 columns, and 50015 nonzeros.
Reduced MIP has 10005 binaries, 0 generals, 0 SOSs, and 0 indicators.
Presolve time = 0.03 sec. (25.68 ticks)
Probing time = 0.02 sec. (3.32 ticks)
Clique table members: 12000.
MIP emphasis: balance optimality and feasibility.
MIP search method: dynamic search.
Parallel mode: deterministic, using up to 4 threads.
Root relaxation solution time = 0.14 sec. (152.37 ticks)

        Nodes                                         Cuts/
   Node  Left     Objective  IInf  Best Integer    Best Bound    ItCnt     Gap

*     0+    0                            0.0000    61793.0000              --- 
*     0+    0                         3618.0000    61793.0000              --- 
*     0+    0                         3892.0000    61793.0000              --- 
*     0+    0                         3922.0000    61793.0000              --- 
*     0+    0                         3933.0000    61793.0000              --- 
      0     0    21297.0065     5     3933.0000    21297.0065     2616  441.50%
*     0+    0                        14935.0000    21297.0065            42.60%
      0     0        cutoff          14935.0000    14935.0000     4040    0.00%
Elapsed time = 1.28 sec. (865.89 ticks, tree = 0.01 MB, solutions = 6)

Clique cuts applied:  597
Cover cuts applied:  3
Mixed integer rounding cuts applied:  4

Root node processing (before b&c):
  Real time             =    1.28 sec. (866.81 ticks)
Parallel b&c, 4 threads:
  Real time             =    0.00 sec. (0.00 ticks)
  Sync time (average)   =    0.00 sec.
  Wait time (average)   =    0.00 sec.
                          ------------
Total (root+branch&cut) =    1.28 sec. (866.81 ticks)
